Maximize
54.0 x0 +78.0 x1 +102.0 x2 
Subject To
54.0 x0 +42.0 x1 +30.0 x2  <= 11
54.0 x0 +42.0 x1 +30.0 x2  >= -1
54.0 x0 +42.0 x1 +30.0 x2  <= 11
54.0 x0 +42.0 x1 +30.0 x2  >= -1
0.0 x0 -12.0 x1 -24.0 x2  <= 11
0.0 x0 -12.0 x1 -24.0 x2  >= -1
0.0 x0 +6.0 x1 +12.0 x2  <= 11
0.0 x0 +6.0 x1 +12.0 x2  >= -1
0.0 x0 +6.0 x1 +12.0 x2  <= 11
0.0 x0 +6.0 x1 +12.0 x2  >= -1
-18.0 x0 -18.0 x1 -18.0 x2  <= 11
-18.0 x0 -18.0 x1 -18.0 x2  >= -1
0.0 x0 -3.0 x1 -6.0 x2  <= 11
0.0 x0 -3.0 x1 -6.0 x2  >= -1
0.0 x0 +1.5 x1 +3.0 x2  <= 11
0.0 x0 +1.5 x1 +3.0 x2  >= -1
0.0 x0 +1.5 x1 +3.0 x2  <= 11
0.0 x0 +1.5 x1 +3.0 x2  >= -1
x2 - x4 = 0
x3 - x5 = 0
x8 - x9 = 0
End
